Route 1: 2 45 46 6 8 7 4 5 3 1

Route 2: 12 14 15 11 9 10 16 13 17 47

Route 3: 20 19 18 21 23 22 49 48 25 24

Route 4: 29 27 26 30 32 28 31 34

Route 5: 50 33 35 37 43

Route 6: 42 39 36 40 38 41

Route 7: 44

Vehicles: 7

Distance: 825.26

